&bands
	prefix = 'scn'
	filband = 'bands.dat'	
/
