 &control
    calculation='vc-relax'
    restart_mode='from_scratch', !disregards any prior wfc, etc files created 
    pseudo_dir = './pseudos/', 		 !the pseudopotentials will be in this directory
    prefix='dat' 		 !this is the prefix that the PWCOND file will pull from
    !max_seconds=1.0D+7 	 !use this to break into sub-48 hour intervals to fit in queue
    verbosity='high' 		 !will print out fermi energy in output 
    !etot_conv_thr= 		 !convergence is achieved when the total energy change between steps is less than this
    !forc_conv_thr= 		 !convergence is achieved when all forces are smaller than this
    !tefield = .true. 		 !adds a saw-like potential to simulate an electric field 
    !dipfield = .true. 		 !adds a dipole correction if tefield is true
    !lelfield = .true. 		 !"If .TRUE. a homogeneous finite electric field described through the modern theory of the polarization is applied." ?
    !lorbm = .true. 		 !if nscf calculation, perform orb. magnetization calculation
/
&system
    !fcp_mu=.true.
    ibrav= 2,
    A=6.85865,
    !celldm(3)= 1,
    nat= 2, 				!number of atoms in unit cell for scf calculation
    ntyp= 2, 				!number of types of atoms defined under atomic species
    nbnd = 48 				!number of bands to be calculated, default should be fine
    !tot_charge = 0 			!total charge of the system, # of additional or missing electrons
    !nosym = .false. 			!if true, charge density is not symmetrized--use in large unit cells?
    
    noncolin= .true. 			!"if .true, the program will perform a noncollinear calculation"
    lspinorb = .true. 			!if true, noncolin mode can use a pseudopotential with spin-orbit
    !nspin = 1,				!if 1, will perform non-spin-polarized calculation. if 2, will do so, constraining magnetization to z axis. if 4, will do noncollinear magnetization in generic direction. use noncolin=.true.
    !starting_magnetization(1)= 1,	!starting magnetization
    !angle1(1) = 90 			!angle in degrees between initial magnetization and z axis for noncollinear
    !angle2(1) = 90			!angle in degrees between proj. of init. magnetization on xy plane and x axis
    !constrained_magnetization = atomic	!atomic magnetizations are constrained to defined starting magnetization, see px.x guide for more, can constrain direction and etc
    !fixed_magnetization(1) = 1.0	!total magnetization vector to fix in x
    !fixed_magnetization(2) = 0.0	!total magnetization vector to fix in y
    !fixed_magnetization(3) = 0.0	!total magnetization vector to fix in z
    
    !eamp = 1 				!amplitude of electric field in Hartree a.u. if tefield=.true. 
    !lda_plus_u = .true. 		!enable to do DFT+U calculations
    !lda_plus_u_kind = 0, 		!must be 0 to use with pwcond
    !hubbard_U(1) = 4.5,	 		!hubbard offset for particular atom in index
    !hubbard_alpha(1) =  		!"perturbation used to compute U with linear response method (see pw.x guide)
    !hubbard_beta(1) =  		!"perturbation used to compute J0 with linear response method (see pw.x guide)
    ecutwfc = 50.0, 			!kinetic energy cutoff (Ry) for wfcs
    ecutrho = 500.0, 			!kinetic energy cutoff for charge density and potential. see *.UPF file 
    occupations='smearing', 		!used with systems with metals. Doesn't fix occupations. 
    smearing='gaussian', 			!type of smearing... see http://theossrv1.epfl.ch/Main/ElectronicTemperature
    degauss=0.02 			!value of gaussian spreading for brillouin zone integration
 /
 &electrons
    diagonalization='david',		!type of diagonalization, conjugate-gradient band by band diag. uses less mem. 
    !startwingwfc='random',		!
    !efield = 0 			!amplitude of efield if lelfield = .true.. see efield_cart(i) for direction
    conv_thr = 1.0e-9,			!convergence threshold for scf, will stop if estimated energy error is less that
    mixing_beta = 0.3			!mixing factor for scf
 /
 &ions
    ion_dynamics = 'bfgs',
    ion_positions = 'default',                                                  pot_extrapolation = 'atomic',
    !wfc_extrapolation = 'first_order',
 /
 &cell
    cell_dynamics = 'bfgs',
    cell_dofree = 'ibrav',
 /
 
ATOMIC_SPECIES
In 44.9559 In.UPF
Bi  14.0067  Bi.UPF

ATOMIC_POSITIONS (crystal)
In 0.00000 0.00000 0.0000
Bi 0.2500  0.25000 0.25000

K_POINTS (automatic)
8 8 8 0 0 0
