&bands
	prefix = 'dat'
	filband = 'bands.dat'	
/
