 &control
    calculation='vc-relax'
    restart_mode='from_scratch', !disregards any prior wfc, etc files created 
    pseudo_dir = '/work/06640/wrogers/mysharedirectory/pseudos/ONCV/SR/', 		 !the pseudopotentials will be in this directory
    prefix='dat' 		 !this is the prefix that the PWCOND file will pull from
    disk_io = 'low'
    verbosity='high' 		 !will print out fermi energy in output 
    max_seconds=169200,
 /
 &system
    ibrav= 1,
    A=4.45
    !celldm(1)= 11.7654,
    !celldm(3)= 1.4142,
    nat= 8, 				!number of atoms in unit cell for scf calculation
    ntyp= 3, 				!number of types of atoms defined under atomic species
    !nbnd = 64  				!number of bands to be calculated, default should be fine
  
    !noncolin= .true. 			!"if .true, the program will perform a noncollinear calculation"
    !lspinorb = .true. 			!if true, noncolin mode can use a pseudopotential with spin-orbit
    nspin = 2,				!if 1, will perform non-spin-polarized calculation. if 2, will do so, constraining magnetization to z axis. if 4, will do noncollinear magnetization    
    starting_magnetization(1)= 1,	!starting magnetization
    starting_magnetization(2)= 0.2,	!starting magnetization
    starting_magnetization(3)= 0,	!starting magnetization
    !input_dft='HSE',
    
    lda_plus_u = .true. 		!enable to do DFT+U calculations
    lda_plus_u_kind = 0, 		!must be 0 to use with pwcond
    hubbard_U(1) = 2, 		!hubbard offset for particular atom in index
    hubbard_U(2) = 3, 		!hubbard offset for particular atom in index
    report = 1,
    ecutwfc = 100, 			!kinetic energy cutoff (Ry) for wfcs
    ecutfock = 400
    ecutrho = 400, 			!kinetic energy cutoff for charge density and potential. see *.UPF file 
    !nqx1=1, nqx2=1, nqx3=1,
    occupations='smearing', 		!used with systems with metals. Doesn't fix occupations. 
    smearing='gaussian', 			!type of smearing... see http://theossrv1.epfl.ch/Main/ElectronicTemperature
    degauss=0.02 			!value of gaussian spreading for brillouin zone integration
 /
 &electrons
    diagonalization='david',		!type of diagonalization, conjugate-gradient band by band diag. uses less m   
    adaptive_thr = .true.,
    conv_thr = 1.0e-8,			!convergence threshold for scf, will stop if estimated energy error is less that
    mixing_beta = 0.3			!mixing factor for scf
 /
 &ions
    ion_dynamics = 'bfgs',
    wfc_extrapolation = 'first-order'
 /
 &cell
    cell_dofree = 'ibrav',
    press_conv_thr = 0.001,
 /

ATOMIC_SPECIES
Fe1 55.845 Fe.UPF
Sc 44.956 Sc.UPF
N 14.007 N.UPF

ATOMIC_POSITIONS (angstrom)
Fe1	0.0	0.0	0.0
Sc	2.225	2.225	0.0
Sc	0.0	2.225	2.225
Sc	2.225	0.0	2.225
N	0.0	0.0	2.225
N	2.225	2.225	2.225
N	0.0	2.225	0.0
N	2.225	0.0	0.0

K_POINTS (automatic)
10 10 10 0 0 0

