&inputpp
   outdir = './og_scratch'
   prefix = 'dat'
/
