&inputpp 
   outdir = './scratch'
   prefix = 'dat'
/
