&inputpp 
   outdir = './scratch'
   prefix = 'dat'
   seedname = 'heusler'
   write_spn = .true.   
   write_mmn = .true.
   write_amn = .true.
   !write_unk = .true.
/
