&inputpp 
   outdir = './scratch'
   prefix = 'dat'
   seedname = 'input'
   spin_component = 'none'
   write_mmn = .true.
   write_amn = .true.
   write_unk = .false.
   !write_spn = .true.
   !write_unk = .true.
/
